Problem:    
Rows:       57
Columns:    46 (20 integer, 20 binary)
Non-zeros:  119
Status:     INTEGER OPTIMAL
Objective:  obj = -659.2499467 (MINimum)

   No.   Row name        Activity     Lower bound   Upper bound
------ ------------    ------------- ------------- -------------
     1 c1                          0                           0 
     2 c2                          0                           0 
     3 c3                          0                           0 
     4 c4                          0                           0 
     5 c5                          0                           0 
     6 c6                          0                           0 
     7 c7                          0                           0 
     8 c8                 -0.0387092                           0 
     9 c9                          0                           0 
    10 c10                         0                           0 
    11 c11                         0                           0 
    12 c12                         0                           0 
    13 c13                 -0.256938                           0 
    14 c14                 -0.256938                           0 
    15 c15                 -0.256938                           0 
    16 c16                 -0.256938                           0 
    17 c17                 -0.256938                           0 
    18 c18                 -0.256938                           0 
    19 c19                 -0.256938                           0 
    20 c20                    -0.285                           0 
    21 c21                         0                           0 
    22 c22                         0                           0 
    23 c23                         0                           0 
    24 c24                         0                           0 
    25 c25                         0                           0 
    26 c26                         0                           0 
    27 c27                         0                           0 
    28 c28                 -0.961291                           0 
    29 c29                         0                           0 
    30 c30                         0                           0 
    31 c31                         0                           0 
    32 c32                        -1                           0 
    33 c33                 -0.743062                           0 
    34 c34                 -0.743062                           0 
    35 c35                 -0.743062                           0 
    36 c36                 -0.743062                           0 
    37 c37                 -0.743062                           0 
    38 c38                 -0.743062                           0 
    39 c39                 -0.743062                           0 
    40 c40                    -0.715                           0 
    41 c41                         0             0             = 
    42 c42                         0             0             = 
    43 c43                         0             0             = 
    44 c44                         0             0             = 
    45 c45                         0             0             = 
    46 c46                         0             0             = 
    47 c47                         0             0             = 
    48 c48                         0             0             = 
    49 c49                         0             0             = 
    50 c50                         0             0             = 
    51 c51                         0             0             = 
    52 c52                         1             1             = 
    53 c53                         1             1             = 
    54 c54                         1             1             = 
    55 c55                         1             1             = 
    56 c56                         1             1             = 
    57 c57                         1             1             = 

   No. Column name       Activity     Lower bound   Upper bound
------ ------------    ------------- ------------- -------------
     1 y_ch1_1      *              0             0             1 
     2 y_ch1_2      *              0             0             1 
     3 y_ch1_3      *              0             0             1 
     4 y_ch1_4      *              0             0             1 
     5 y_ch2_1      *              0             0             1 
     6 y_ch2_2      *              0             0             1 
     7 y_ch2_3      *              0             0             1 
     8 y_ch2_4      *              1             0             1 
     9 y_ch3_1      *              0             0             1 
    10 y_ch3_2      *              0             0             1 
    11 y_ch3_3      *              0             0             1 
    12 y_ch3_4      *              1             0             1 
    13 y_sp1        *              1             0             1 
    14 y_sscp       *              1             0             1 
    15 y_ssgv2      *              1             0             1 
    16 y_sshsb      *              1             0             1 
    17 y_sspfa      *              1             0             1 
    18 y_ssser      *              1             0             1 
    19 y_ssfir      *              1             0             1 
    20 y_sp2        *              1             0             1 
    21 u_ch1_1                     0             0             1 
    22 u_ch1_2                     0             0             1 
    23 u_ch1_3                     0             0             1 
    24 u_ch1_4                     0             0             1 
    25 u_ch2_1                     0             0             1 
    26 u_ch2_2                     0             0             1 
    27 u_ch2_3                     0             0             1 
    28 u_ch2_4             0.0387092             0             1 
    29 u_ch3_1                     0             0             1 
    30 u_ch3_2                     0             0             1 
    31 u_ch3_3                     0             0             1 
    32 u_ch3_4                     0             0             1 
    33 u_sp1                0.256938             0             1 
    34 u_sscp               0.256938             0             1 
    35 u_ssgv2              0.256938             0             1 
    36 u_sshsb              0.256938             0             1 
    37 u_sspfa              0.256938             0             1 
    38 u_ssser              0.256938             0             1 
    39 u_ssfir              0.256938             0             1 
    40 u_sp2                   0.285             0             1 
    41 y_ch1_ret                   1             0               
    42 u_ch1_ret                   1             0               
    43 y_ch2_ret                   1             0               
    44 u_ch2_ret                   1             0               
    45 y_ch3_ret                   1             0               
    46 u_ch3_ret                   1             0               

Integer feasibility conditions:

KKT.PE: max.abs.err = 5.68e-14 on row 41
        max.rel.err = 1.10e-16 on row 41
        High quality

KKT.PB: max.abs.err = 5.68e-14 on row 41
        max.rel.err = 5.68e-14 on row 41
        High quality

End of output
